NAME : local_2
TYPE : ATSP
DIMENSION : 63
EDGE_WEIGHT_TYPE : EXPLICIT
EDGE_WEIGHT_FORMAT : FULL_MATRIX
EDGE_WEIGHT_SECTION
0 10000000 10000000 10000000 10000000 10000000 10000000 10000000 10000000 10000000 10000000 10000000 926 10000000 10000000 10000000 10000000 10000000 10000000 10000000 10000000 10000000 10000000 10000000 10000000 10000000 10000000 10000000 10000000 738 10000000 10000000 839 10000000 10000000 10000000 10000000 10000000 10000000 10000000 10000000 10000000 10000000 449 740 10000000 10000000 10000000 295 10000000 10000000 147 10000000 10000000 10000000 10000000 825 10000000 10000000 10000000 10000000 10000000 10000000 
0 0 10000000 920 583 10000000 556 701 10000000 10000000 866 10000000 10000000 10000000 10000000 10000000 10000000 10000000 10000000 10000000 10000000 10000000 10000000 10000000 10000000 10000000 10000000 10000000 10000000 10000000 449 10000000 10000000 10000000 10000000 10000000 10000000 10000000 10000000 10000000 10000000 10000000 10000000 10000000 10000000 10000000 10000000 10000000 10000000 533 10000000 10000000 10000000 10000000 10000000 10000000 10000000 10000000 10000000 10000000 10000000 10000000 10000000 
0 10000000 0 453 10000000 10000000 10000000 10000000 10000000 10000000 10000000 994 10000000 10000000 10000000 10000000 10000000 10000000 10000000 812 10000000 10000000 10000000 404 896 10000000 10000000 10000000 10000000 10000000 10000000 10000000 10000000 10000000 828 10000000 10000000 10000000 10000000 10000000 10000000 10000000 10000000 10000000 10000000 10000000 10000000 410 10000000 10000000 10000000 10000000 10000000 10000000 10000000 10000000 10000000 10000000 10000000 10000000 10000000 10000000 10000000 
0 920 453 0 10000000 10000000 10000000 10000000 10000000 10000000 10000000 10000000 10000000 10000000 10000000 10000000 10000000 10000000 10000000 10000000 10000000 10000000 10000000 375 761 10000000 10000000 10000000 10000000 10000000 650 935 10000000 10000000 968 10000000 10000000 10000000 10000000 10000000 10000000 10000000 10000000 10000000 10000000 10000000 10000000 620 10000000 806 10000000 10000000 10000000 10000000 10000000 10000000 10000000 10000000 10000000 10000000 10000000 10000000 10000000 
0 583 10000000 10000000 0 10000000 299 183 10000000 10000000 402 10000000 10000000 10000000 10000000 10000000 10000000 10000000 957 10000000 10000000 10000000 10000000 10000000 10000000 10000000 10000000 855 10000000 10000000 779 10000000 10000000 10000000 10000000 10000000 653 10000000 10000000 10000000 10000000 10000000 10000000 10000000 10000000 10000000 10000000 10000000 10000000 700 10000000 10000000 10000000 10000000 10000000 10000000 10000000 10000000 831 10000000 10000000 906 10000000 
0 10000000 10000000 10000000 10000000 0 10000000 10000000 438 862 10000000 10000000 832 374 10000000 10000000 10000000 10000000 749 10000000 10000000 10000000 10000000 10000000 10000000 10000000 10000000 10000000 10000000 10000000 10000000 10000000 10000000 10000000 10000000 10000000 10000000 10000000 10000000 10000000 10000000 945 10000000 10000000 10000000 650 10000000 10000000 10000000 10000000 10000000 10000000 10000000 325 10000000 10000000 10000000 10000000 10000000 10000000 10000000 778 10000000 
0 556 10000000 10000000 299 10000000 0 241 10000000 10000000 322 10000000 10000000 10000000 10000000 10000000 10000000 10000000 10000000 10000000 10000000 10000000 10000000 10000000 10000000 10000000 10000000 666 10000000 10000000 581 10000000 10000000 10000000 10000000 10000000 765 10000000 996 10000000 10000000 10000000 10000000 10000000 10000000 10000000 10000000 10000000 10000000 449 10000000 10000000 10000000 10000000 10000000 942 10000000 949 915 10000000 10000000 10000000 10000000 
0 701 10000000 10000000 183 10000000 241 0 10000000 10000000 218 10000000 10000000 10000000 10000000 10000000 10000000 10000000 10000000 10000000 10000000 10000000 10000000 10000000 10000000 10000000 10000000 675 10000000 10000000 801 10000000 10000000 10000000 10000000 10000000 551 10000000 10000000 10000000 10000000 10000000 10000000 10000000 10000000 10000000 10000000 10000000 10000000 679 10000000 10000000 10000000 10000000 10000000 10000000 10000000 10000000 718 10000000 10000000 867 10000000 
0 10000000 10000000 10000000 10000000 438 10000000 10000000 0 10000000 10000000 10000000 649 169 10000000 10000000 10000000 10000000 595 10000000 10000000 10000000 10000000 10000000 10000000 10000000 10000000 10000000 10000000 10000000 10000000 10000000 10000000 10000000 10000000 10000000 796 10000000 10000000 10000000 10000000 10000000 10000000 10000000 10000000 952 10000000 10000000 10000000 10000000 10000000 10000000 10000000 710 10000000 10000000 10000000 10000000 760 10000000 10000000 362 10000000 
0 10000000 10000000 10000000 10000000 862 10000000 10000000 10000000 0 10000000 10000000 10000000 10000000 10000000 10000000 10000000 10000000 10000000 939 10000000 10000000 10000000 10000000 10000000 10000000 10000000 10000000 10000000 682 10000000 10000000 10000000 10000000 10000000 10000000 10000000 10000000 10000000 10000000 10000000 215 10000000 10000000 780 303 10000000 10000000 10000000 10000000 10000000 10000000 10000000 561 10000000 10000000 890 10000000 10000000 10000000 10000000 10000000 240 
0 866 10000000 10000000 402 10000000 322 218 10000000 10000000 0 10000000 10000000 10000000 10000000 10000000 10000000 10000000 10000000 10000000 10000000 10000000 10000000 10000000 10000000 10000000 10000000 463 10000000 10000000 870 10000000 10000000 10000000 10000000 10000000 505 10000000 845 10000000 10000000 10000000 10000000 10000000 10000000 10000000 10000000 10000000 10000000 709 10000000 10000000 10000000 10000000 917 854 10000000 977 639 10000000 10000000 881 10000000 
0 10000000 994 10000000 10000000 10000000 10000000 10000000 10000000 10000000 10000000 0 10000000 10000000 673 10000000 10000000 10000000 10000000 559 10000000 10000000 376 664 359 10000000 10000000 10000000 10000000 10000000 10000000 306 10000000 506 286 10000000 10000000 10000000 10000000 10000000 10000000 10000000 10000000 10000000 10000000 10000000 10000000 601 10000000 10000000 10000000 10000000 891 10000000 10000000 10000000 10000000 733 10000000 10000000 10000000 10000000 10000000 
0 10000000 10000000 10000000 10000000 832 10000000 10000000 649 10000000 10000000 10000000 0 806 10000000 10000000 672 10000000 10000000 10000000 10000000 10000000 10000000 10000000 10000000 10000000 10000000 10000000 10000000 954 10000000 10000000 498 10000000 10000000 684 969 10000000 10000000 10000000 10000000 10000000 10000000 881 10000000 940 10000000 10000000 10000000 10000000 10000000 801 10000000 900 10000000 10000000 10000000 10000000 813 10000000 10000000 678 10000000 
0 10000000 10000000 10000000 10000000 374 10000000 10000000 169 10000000 10000000 10000000 806 0 10000000 10000000 10000000 10000000 469 10000000 10000000 10000000 10000000 10000000 10000000 10000000 10000000 10000000 10000000 10000000 10000000 10000000 10000000 10000000 10000000 10000000 889 10000000 10000000 10000000 10000000 10000000 10000000 10000000 10000000 964 10000000 10000000 10000000 10000000 10000000 10000000 10000000 682 10000000 10000000 10000000 10000000 882 10000000 10000000 479 10000000 
0 10000000 10000000 10000000 10000000 10000000 10000000 10000000 10000000 10000000 10000000 673 10000000 10000000 0 565 10000000 10000000 10000000 913 10000000 659 299 10000000 989 10000000 10000000 10000000 10000000 10000000 10000000 854 10000000 379 785 10000000 10000000 761 10000000 10000000 10000000 10000000 10000000 10000000 10000000 10000000 532 10000000 10000000 10000000 10000000 10000000 351 10000000 10000000 10000000 948 10000000 10000000 10000000 10000000 10000000 10000000 
0 10000000 10000000 10000000 10000000 10000000 10000000 10000000 10000000 10000000 10000000 10000000 10000000 10000000 565 0 10000000 10000000 10000000 10000000 10000000 301 773 10000000 10000000 10000000 10000000 10000000 10000000 10000000 10000000 10000000 10000000 564 10000000 10000000 10000000 423 10000000 10000000 915 10000000 10000000 10000000 10000000 10000000 844 10000000 10000000 10000000 836 10000000 798 10000000 10000000 10000000 10000000 10000000 10000000 10000000 10000000 10000000 10000000 
0 10000000 10000000 10000000 10000000 10000000 10000000 10000000 10000000 10000000 10000000 10000000 672 10000000 10000000 10000000 0 10000000 10000000 10000000 439 10000000 10000000 10000000 10000000 978 10000000 10000000 10000000 10000000 10000000 10000000 349 10000000 10000000 125 840 10000000 10000000 10000000 10000000 10000000 10000000 869 10000000 10000000 10000000 10000000 10000000 10000000 10000000 10000000 10000000 10000000 424 10000000 10000000 10000000 653 10000000 10000000 860 10000000 
0 10000000 10000000 10000000 10000000 10000000 10000000 10000000 10000000 10000000 10000000 10000000 10000000 10000000 10000000 10000000 10000000 0 10000000 10000000 10000000 10000000 10000000 10000000 10000000 10000000 480 10000000 401 10000000 10000000 10000000 10000000 10000000 10000000 10000000 10000000 10000000 946 376 276 10000000 553 10000000 10000000 10000000 10000000 10000000 10000000 10000000 678 10000000 10000000 10000000 10000000 10000000 10000000 10000000 10000000 842 726 10000000 10000000 
0 10000000 10000000 10000000 957 749 10000000 10000000 595 10000000 10000000 10000000 10000000 469 10000000 10000000 10000000 10000000 0 10000000 10000000 10000000 10000000 10000000 10000000 10000000 10000000 10000000 10000000 10000000 10000000 10000000 10000000 10000000 10000000 10000000 939 10000000 10000000 10000000 10000000 10000000 10000000 10000000 10000000 10000000 10000000 10000000 10000000 10000000 10000000 10000000 10000000 10000000 10000000 10000000 10000000 10000000 10000000 10000000 10000000 690 10000000 
0 10000000 812 10000000 10000000 10000000 10000000 10000000 10000000 939 10000000 559 10000000 10000000 913 10000000 10000000 10000000 10000000 0 10000000 10000000 680 714 778 10000000 10000000 10000000 10000000 991 10000000 815 10000000 959 282 10000000 10000000 10000000 10000000 10000000 10000000 860 10000000 10000000 913 10000000 10000000 458 10000000 10000000 10000000 10000000 924 10000000 10000000 10000000 808 10000000 10000000 10000000 10000000 10000000 734 
0 10000000 10000000 10000000 10000000 10000000 10000000 10000000 10000000 10000000 10000000 10000000 10000000 10000000 10000000 10000000 439 10000000 10000000 10000000 0 10000000 10000000 10000000 10000000 542 997 10000000 10000000 10000000 10000000 10000000 605 10000000 10000000 517 10000000 10000000 10000000 931 10000000 10000000 780 874 10000000 10000000 10000000 10000000 10000000 10000000 10000000 10000000 10000000 10000000 526 10000000 10000000 10000000 10000000 10000000 10000000 10000000 10000000 
0 10000000 10000000 10000000 10000000 10000000 10000000 10000000 10000000 10000000 10000000 10000000 10000000 10000000 659 301 10000000 10000000 10000000 10000000 10000000 0 932 10000000 10000000 10000000 10000000 10000000 10000000 10000000 10000000 10000000 10000000 802 10000000 10000000 10000000 126 10000000 10000000 10000000 10000000 10000000 10000000 10000000 10000000 745 10000000 10000000 10000000 10000000 10000000 775 10000000 10000000 10000000 10000000 10000000 10000000 1030 10000000 10000000 10000000 
0 10000000 10000000 10000000 10000000 10000000 10000000 10000000 10000000 10000000 10000000 376 10000000 10000000 299 773 10000000 10000000 10000000 680 10000000 932 0 10000000 709 10000000 10000000 10000000 10000000 10000000 10000000 594 10000000 314 503 10000000 10000000 10000000 10000000 10000000 10000000 10000000 10000000 10000000 10000000 10000000 763 912 10000000 10000000 10000000 10000000 543 10000000 10000000 10000000 947 900 10000000 10000000 10000000 10000000 10000000 
0 10000000 404 375 10000000 10000000 10000000 10000000 10000000 10000000 10000000 664 10000000 10000000 10000000 10000000 10000000 10000000 10000000 714 10000000 10000000 10000000 0 498 10000000 10000000 10000000 10000000 10000000 811 664 10000000 10000000 596 10000000 10000000 10000000 10000000 10000000 10000000 10000000 10000000 10000000 10000000 10000000 10000000 282 10000000 896 10000000 10000000 10000000 10000000 10000000 10000000 10000000 10000000 10000000 10000000 10000000 10000000 10000000 
0 10000000 896 761 10000000 10000000 10000000 10000000 10000000 10000000 10000000 359 10000000 10000000 989 10000000 10000000 10000000 10000000 778 10000000 10000000 709 498 0 10000000 10000000 10000000 10000000 10000000 817 174 10000000 724 529 10000000 10000000 10000000 10000000 10000000 10000000 10000000 10000000 10000000 10000000 10000000 10000000 598 10000000 791 10000000 10000000 10000000 10000000 10000000 931 10000000 547 10000000 10000000 10000000 10000000 10000000 
0 10000000 10000000 10000000 10000000 10000000 10000000 10000000 10000000 10000000 10000000 10000000 10000000 10000000 10000000 10000000 978 10000000 10000000 10000000 542 10000000 10000000 10000000 10000000 0 686 10000000 10000000 10000000 10000000 10000000 10000000 10000000 10000000 10000000 10000000 10000000 10000000 892 10000000 10000000 812 10000000 10000000 10000000 10000000 10000000 10000000 10000000 10000000 10000000 10000000 10000000 998 10000000 10000000 10000000 10000000 10000000 10000000 10000000 10000000 
0 10000000 10000000 10000000 10000000 10000000 10000000 10000000 10000000 10000000 10000000 10000000 10000000 10000000 10000000 10000000 10000000 480 10000000 10000000 997 10000000 10000000 10000000 10000000 686 0 10000000 750 10000000 10000000 10000000 10000000 10000000 10000000 10000000 10000000 10000000 10000000 468 726 10000000 537 10000000 10000000 10000000 10000000 10000000 10000000 10000000 10000000 10000000 10000000 10000000 10000000 10000000 10000000 10000000 10000000 877 949 10000000 10000000 
0 10000000 10000000 10000000 855 10000000 666 675 10000000 10000000 463 10000000 10000000 10000000 10000000 10000000 10000000 10000000 10000000 10000000 10000000 10000000 10000000 10000000 10000000 10000000 10000000 0 893 10000000 10000000 10000000 10000000 10000000 10000000 10000000 769 10000000 389 10000000 10000000 10000000 924 10000000 10000000 10000000 10000000 10000000 10000000 848 841 10000000 10000000 10000000 759 452 10000000 724 803 10000000 553 10000000 10000000 
0 10000000 10000000 10000000 10000000 10000000 10000000 10000000 10000000 10000000 10000000 10000000 10000000 10000000 10000000 10000000 10000000 401 10000000 10000000 10000000 10000000 10000000 10000000 10000000 10000000 750 893 0 10000000 10000000 10000000 10000000 10000000 10000000 10000000 10000000 10000000 546 342 229 10000000 457 10000000 10000000 10000000 10000000 10000000 10000000 10000000 347 10000000 10000000 10000000 10000000 672 10000000 997 10000000 10000000 353 10000000 10000000 
0 10000000 10000000 10000000 10000000 10000000 10000000 10000000 10000000 682 10000000 10000000 954 10000000 10000000 10000000 10000000 10000000 10000000 991 10000000 10000000 10000000 10000000 10000000 10000000 10000000 10000000 10000000 0 10000000 10000000 10000000 10000000 10000000 10000000 10000000 10000000 10000000 10000000 10000000 474 10000000 10000000 177 598 10000000 10000000 649 10000000 10000000 638 10000000 907 10000000 10000000 375 10000000 10000000 10000000 10000000 10000000 733 
0 449 10000000 650 779 10000000 581 801 10000000 10000000 870 10000000 10000000 10000000 10000000 10000000 10000000 10000000 10000000 10000000 10000000 10000000 10000000 811 817 10000000 10000000 10000000 10000000 10000000 0 934 10000000 10000000 10000000 10000000 10000000 10000000 10000000 10000000 10000000 10000000 10000000 10000000 10000000 10000000 10000000 10000000 10000000 201 10000000 10000000 10000000 10000000 10000000 10000000 10000000 873 10000000 10000000 10000000 10000000 10000000 
0 10000000 10000000 935 10000000 10000000 10000000 10000000 10000000 10000000 10000000 306 10000000 10000000 854 10000000 10000000 10000000 10000000 815 10000000 10000000 594 664 174 10000000 10000000 10000000 10000000 10000000 934 0 10000000 561 552 10000000 10000000 10000000 10000000 10000000 10000000 10000000 10000000 10000000 10000000 10000000 10000000 725 10000000 876 10000000 10000000 10000000 10000000 10000000 833 10000000 458 10000000 10000000 10000000 10000000 10000000 
0 10000000 10000000 10000000 10000000 10000000 10000000 10000000 10000000 10000000 10000000 10000000 498 10000000 10000000 10000000 349 10000000 10000000 10000000 605 10000000 10000000 10000000 10000000 10000000 10000000 10000000 10000000 10000000 10000000 10000000 0 10000000 10000000 448 10000000 10000000 10000000 10000000 10000000 10000000 10000000 574 10000000 10000000 10000000 10000000 10000000 10000000 10000000 782 10000000 10000000 756 10000000 10000000 10000000 887 10000000 10000000 966 10000000 
0 10000000 10000000 10000000 10000000 10000000 10000000 10000000 10000000 10000000 10000000 506 10000000 10000000 379 564 10000000 10000000 10000000 959 10000000 802 314 10000000 724 10000000 10000000 10000000 10000000 10000000 10000000 561 10000000 0 740 10000000 10000000 926 10000000 10000000 10000000 10000000 10000000 10000000 10000000 10000000 890 10000000 10000000 10000000 849 10000000 713 10000000 10000000 935 10000000 730 10000000 10000000 10000000 10000000 10000000 
0 10000000 828 968 10000000 10000000 10000000 10000000 10000000 10000000 10000000 286 10000000 10000000 785 10000000 10000000 10000000 10000000 282 10000000 10000000 503 596 529 10000000 10000000 10000000 10000000 10000000 10000000 552 10000000 740 0 10000000 10000000 10000000 10000000 10000000 10000000 10000000 10000000 10000000 10000000 10000000 10000000 418 10000000 10000000 10000000 10000000 902 10000000 10000000 10000000 969 974 10000000 10000000 10000000 10000000 991 
0 10000000 10000000 10000000 10000000 10000000 10000000 10000000 10000000 10000000 10000000 10000000 684 10000000 10000000 10000000 125 10000000 10000000 10000000 517 10000000 10000000 10000000 10000000 10000000 10000000 10000000 10000000 10000000 10000000 10000000 448 10000000 10000000 0 717 10000000 10000000 10000000 10000000 10000000 10000000 981 10000000 10000000 10000000 10000000 10000000 10000000 10000000 10000000 10000000 10000000 353 10000000 10000000 10000000 532 10000000 10000000 768 10000000 
0 10000000 10000000 10000000 653 10000000 765 551 796 10000000 505 10000000 969 889 10000000 10000000 840 10000000 939 10000000 10000000 10000000 10000000 10000000 10000000 10000000 10000000 769 10000000 10000000 10000000 10000000 10000000 10000000 10000000 717 0 10000000 10000000 10000000 10000000 10000000 10000000 10000000 10000000 10000000 10000000 10000000 10000000 10000000 10000000 10000000 10000000 10000000 707 10000000 10000000 10000000 191 10000000 10000000 440 10000000 
0 10000000 10000000 10000000 10000000 10000000 10000000 10000000 10000000 10000000 10000000 10000000 10000000 10000000 761 423 10000000 10000000 10000000 10000000 10000000 126 10000000 10000000 10000000 10000000 10000000 10000000 10000000 10000000 10000000 10000000 10000000 926 10000000 10000000 10000000 0 10000000 10000000 10000000 10000000 10000000 10000000 10000000 10000000 773 10000000 10000000 10000000 10000000 10000000 836 10000000 10000000 10000000 10000000 10000000 10000000 936 10000000 10000000 10000000 
0 10000000 10000000 10000000 10000000 10000000 996 10000000 10000000 10000000 845 10000000 10000000 10000000 10000000 10000000 10000000 946 10000000 10000000 10000000 10000000 10000000 10000000 10000000 10000000 10000000 389 546 10000000 10000000 10000000 10000000 10000000 10000000 10000000 10000000 10000000 0 750 744 10000000 734 10000000 10000000 10000000 10000000 10000000 10000000 10000000 456 10000000 10000000 10000000 892 205 10000000 599 10000000 10000000 273 10000000 10000000 
0 10000000 10000000 10000000 10000000 10000000 10000000 10000000 10000000 10000000 10000000 10000000 10000000 10000000 10000000 10000000 10000000 376 10000000 10000000 931 10000000 10000000 10000000 10000000 892 468 10000000 342 10000000 10000000 10000000 10000000 10000000 10000000 10000000 10000000 10000000 750 0 447 10000000 180 10000000 10000000 10000000 10000000 10000000 10000000 10000000 679 10000000 10000000 10000000 918 924 10000000 10000000 10000000 10000000 486 10000000 10000000 
0 10000000 10000000 10000000 10000000 10000000 10000000 10000000 10000000 10000000 10000000 10000000 10000000 10000000 10000000 915 10000000 276 10000000 10000000 10000000 10000000 10000000 10000000 10000000 10000000 726 10000000 229 10000000 10000000 10000000 10000000 10000000 10000000 10000000 10000000 10000000 744 447 0 10000000 604 10000000 10000000 10000000 10000000 10000000 10000000 10000000 410 10000000 10000000 10000000 10000000 837 10000000 10000000 10000000 974 575 10000000 10000000 
0 10000000 10000000 10000000 10000000 945 10000000 10000000 10000000 215 10000000 10000000 10000000 10000000 10000000 10000000 10000000 10000000 10000000 860 10000000 10000000 10000000 10000000 10000000 10000000 10000000 10000000 10000000 474 10000000 10000000 10000000 10000000 10000000 10000000 10000000 10000000 10000000 10000000 10000000 0 10000000 10000000 565 319 10000000 10000000 10000000 10000000 10000000 10000000 10000000 653 10000000 10000000 679 10000000 10000000 10000000 10000000 10000000 292 
0 10000000 10000000 10000000 10000000 10000000 10000000 10000000 10000000 10000000 10000000 10000000 10000000 10000000 10000000 10000000 10000000 553 10000000 10000000 780 10000000 10000000 10000000 10000000 812 537 924 457 10000000 10000000 10000000 10000000 10000000 10000000 10000000 10000000 10000000 734 180 604 10000000 0 10000000 10000000 10000000 10000000 10000000 10000000 10000000 763 10000000 10000000 10000000 747 923 10000000 10000000 10000000 10000000 465 10000000 10000000 
0 10000000 10000000 10000000 10000000 10000000 10000000 10000000 10000000 10000000 10000000 10000000 881 10000000 10000000 10000000 869 10000000 10000000 10000000 874 10000000 10000000 10000000 10000000 10000000 10000000 10000000 10000000 10000000 10000000 10000000 574 10000000 10000000 981 10000000 10000000 10000000 10000000 10000000 10000000 10000000 0 10000000 10000000 10000000 10000000 718 10000000 10000000 493 10000000 10000000 10000000 10000000 10000000 10000000 10000000 10000000 10000000 10000000 10000000 
0 10000000 10000000 10000000 10000000 10000000 10000000 10000000 10000000 780 10000000 10000000 10000000 10000000 10000000 10000000 10000000 10000000 10000000 913 10000000 10000000 10000000 10000000 10000000 10000000 10000000 10000000 10000000 177 10000000 10000000 10000000 10000000 10000000 10000000 10000000 10000000 10000000 10000000 10000000 565 10000000 10000000 0 747 908 10000000 585 10000000 10000000 670 878 10000000 10000000 10000000 202 10000000 10000000 10000000 10000000 10000000 779 
0 10000000 10000000 10000000 10000000 650 10000000 10000000 952 303 10000000 10000000 940 964 10000000 10000000 10000000 10000000 10000000 10000000 10000000 10000000 10000000 10000000 10000000 10000000 10000000 10000000 10000000 598 10000000 10000000 10000000 10000000 10000000 10000000 10000000 10000000 10000000 10000000 10000000 319 10000000 10000000 747 0 10000000 10000000 10000000 10000000 10000000 10000000 10000000 348 10000000 10000000 907 10000000 10000000 10000000 10000000 10000000 524 
0 10000000 10000000 10000000 10000000 10000000 10000000 10000000 10000000 10000000 10000000 10000000 10000000 10000000 532 844 10000000 10000000 10000000 10000000 10000000 745 763 10000000 10000000 10000000 10000000 10000000 10000000 10000000 10000000 10000000 10000000 890 10000000 10000000 10000000 773 10000000 10000000 10000000 10000000 10000000 10000000 908 10000000 0 10000000 802 10000000 10000000 10000000 229 10000000 10000000 10000000 738 10000000 10000000 10000000 10000000 10000000 10000000 
0 10000000 410 620 10000000 10000000 10000000 10000000 10000000 10000000 10000000 601 10000000 10000000 10000000 10000000 10000000 10000000 10000000 458 10000000 10000000 912 282 598 10000000 10000000 10000000 10000000 10000000 10000000 725 10000000 10000000 418 10000000 10000000 10000000 10000000 10000000 10000000 10000000 10000000 10000000 10000000 10000000 10000000 0 10000000 10000000 10000000 10000000 10000000 10000000 10000000 10000000 10000000 10000000 10000000 10000000 10000000 10000000 945 
0 10000000 10000000 10000000 10000000 10000000 10000000 10000000 10000000 10000000 10000000 10000000 10000000 10000000 10000000 10000000 10000000 10000000 10000000 10000000 10000000 10000000 10000000 10000000 10000000 10000000 10000000 10000000 10000000 649 10000000 10000000 10000000 10000000 10000000 10000000 10000000 10000000 10000000 10000000 10000000 10000000 10000000 718 585 10000000 802 10000000 0 10000000 10000000 361 911 10000000 10000000 10000000 614 10000000 10000000 10000000 10000000 10000000 10000000 
0 533 10000000 806 700 10000000 449 679 10000000 10000000 709 10000000 10000000 10000000 10000000 10000000 10000000 10000000 10000000 10000000 10000000 10000000 10000000 896 791 10000000 10000000 848 10000000 10000000 201 876 10000000 10000000 10000000 10000000 10000000 10000000 10000000 10000000 10000000 10000000 10000000 10000000 10000000 10000000 10000000 10000000 10000000 0 10000000 10000000 10000000 10000000 10000000 902 10000000 729 10000000 10000000 10000000 10000000 10000000 
0 10000000 10000000 10000000 10000000 10000000 10000000 10000000 10000000 10000000 10000000 10000000 10000000 10000000 10000000 836 10000000 678 10000000 10000000 10000000 10000000 10000000 10000000 10000000 10000000 10000000 841 347 10000000 10000000 10000000 10000000 849 10000000 10000000 10000000 10000000 456 679 410 10000000 763 10000000 10000000 10000000 10000000 10000000 10000000 10000000 0 10000000 10000000 10000000 10000000 470 10000000 699 10000000 10000000 440 10000000 10000000 
0 10000000 10000000 10000000 10000000 10000000 10000000 10000000 10000000 10000000 10000000 10000000 801 10000000 10000000 10000000 10000000 10000000 10000000 10000000 10000000 10000000 10000000 10000000 10000000 10000000 10000000 10000000 10000000 638 10000000 10000000 782 10000000 10000000 10000000 10000000 10000000 10000000 10000000 10000000 10000000 10000000 493 670 10000000 10000000 10000000 361 10000000 10000000 0 10000000 10000000 10000000 10000000 783 10000000 10000000 10000000 10000000 10000000 10000000 
0 10000000 10000000 10000000 10000000 10000000 10000000 10000000 10000000 10000000 10000000 891 10000000 10000000 351 798 10000000 10000000 10000000 924 10000000 775 543 10000000 10000000 10000000 10000000 10000000 10000000 10000000 10000000 10000000 10000000 713 902 10000000 10000000 836 10000000 10000000 10000000 10000000 10000000 10000000 878 10000000 229 10000000 911 10000000 10000000 10000000 0 10000000 10000000 10000000 692 10000000 10000000 10000000 10000000 10000000 10000000 
0 10000000 10000000 10000000 10000000 325 10000000 10000000 710 561 10000000 10000000 900 682 10000000 10000000 10000000 10000000 10000000 10000000 10000000 10000000 10000000 10000000 10000000 10000000 10000000 10000000 10000000 907 10000000 10000000 10000000 10000000 10000000 10000000 10000000 10000000 10000000 10000000 10000000 653 10000000 10000000 10000000 348 10000000 10000000 10000000 10000000 10000000 10000000 10000000 0 10000000 10000000 10000000 10000000 10000000 10000000 10000000 10000000 785 
0 10000000 10000000 10000000 10000000 10000000 10000000 10000000 10000000 10000000 917 10000000 10000000 10000000 10000000 10000000 424 10000000 10000000 10000000 526 10000000 10000000 10000000 10000000 998 10000000 759 10000000 10000000 10000000 10000000 756 10000000 10000000 353 707 10000000 892 918 10000000 10000000 747 10000000 10000000 10000000 10000000 10000000 10000000 10000000 10000000 10000000 10000000 10000000 0 10000000 10000000 10000000 574 10000000 776 939 10000000 
0 10000000 10000000 10000000 10000000 10000000 942 10000000 10000000 10000000 854 10000000 10000000 10000000 10000000 10000000 10000000 10000000 10000000 10000000 10000000 10000000 10000000 10000000 931 10000000 10000000 452 672 10000000 10000000 833 10000000 935 10000000 10000000 10000000 10000000 205 924 837 10000000 923 10000000 10000000 10000000 10000000 10000000 10000000 902 470 10000000 10000000 10000000 10000000 0 10000000 398 10000000 10000000 458 10000000 10000000 
0 10000000 10000000 10000000 10000000 10000000 10000000 10000000 10000000 890 10000000 10000000 10000000 10000000 948 10000000 10000000 10000000 10000000 808 10000000 10000000 947 10000000 10000000 10000000 10000000 10000000 10000000 375 10000000 10000000 10000000 10000000 969 10000000 10000000 10000000 10000000 10000000 10000000 679 10000000 10000000 202 907 738 10000000 614 10000000 10000000 783 692 10000000 10000000 10000000 0 10000000 10000000 10000000 10000000 10000000 836 
0 10000000 10000000 10000000 10000000 10000000 949 10000000 10000000 10000000 977 733 10000000 10000000 10000000 10000000 10000000 10000000 10000000 10000000 10000000 10000000 900 10000000 547 10000000 10000000 724 997 10000000 873 458 10000000 730 974 10000000 10000000 10000000 599 10000000 10000000 10000000 10000000 10000000 10000000 10000000 10000000 10000000 10000000 729 699 10000000 10000000 10000000 10000000 398 10000000 0 10000000 10000000 832 10000000 10000000 
0 10000000 10000000 10000000 831 10000000 915 718 760 10000000 639 10000000 813 882 10000000 10000000 653 10000000 10000000 10000000 10000000 10000000 10000000 10000000 10000000 10000000 10000000 803 10000000 10000000 10000000 10000000 887 10000000 10000000 532 191 10000000 10000000 10000000 10000000 10000000 10000000 10000000 10000000 10000000 10000000 10000000 10000000 10000000 10000000 10000000 10000000 10000000 574 10000000 10000000 10000000 0 10000000 10000000 407 10000000 
0 10000000 10000000 10000000 10000000 10000000 10000000 10000000 10000000 10000000 10000000 10000000 10000000 10000000 10000000 10000000 10000000 842 10000000 10000000 10000000 1027 10000000 10000000 10000000 10000000 877 10000000 10000000 10000000 10000000 10000000 10000000 10000000 10000000 10000000 10000000 936 10000000 10000000 974 10000000 10000000 10000000 10000000 10000000 10000000 10000000 10000000 10000000 10000000 10000000 10000000 10000000 10000000 10000000 10000000 10000000 10000000 0 10000000 10000000 10000000 
0 10000000 10000000 10000000 10000000 10000000 10000000 10000000 10000000 10000000 10000000 10000000 10000000 10000000 10000000 10000000 10000000 726 10000000 10000000 10000000 10000000 10000000 10000000 10000000 10000000 949 553 353 10000000 10000000 10000000 10000000 10000000 10000000 10000000 10000000 10000000 273 486 575 10000000 465 10000000 10000000 10000000 10000000 10000000 10000000 10000000 440 10000000 10000000 10000000 776 458 10000000 832 10000000 10000000 0 10000000 10000000 
0 10000000 10000000 10000000 906 778 10000000 867 362 10000000 881 10000000 678 479 10000000 10000000 860 10000000 690 10000000 10000000 10000000 10000000 10000000 10000000 10000000 10000000 10000000 10000000 10000000 10000000 10000000 966 10000000 10000000 768 440 10000000 10000000 10000000 10000000 10000000 10000000 10000000 10000000 10000000 10000000 10000000 10000000 10000000 10000000 10000000 10000000 10000000 939 10000000 10000000 10000000 407 10000000 10000000 0 10000000 
0 10000000 10000000 10000000 10000000 10000000 10000000 10000000 10000000 10000000 10000000 10000000 10000000 10000000 10000000 10000000 10000000 10000000 10000000 10000000 10000000 10000000 10000000 10000000 10000000 10000000 10000000 10000000 10000000 10000000 10000000 10000000 10000000 10000000 10000000 10000000 10000000 10000000 10000000 10000000 10000000 10000000 10000000 10000000 10000000 10000000 10000000 10000000 10000000 10000000 10000000 10000000 10000000 10000000 10000000 10000000 10000000 10000000 10000000 10000000 10000000 10000000 0 
EOF